NAME: rbg021a.sop
TYPE: SOP
COMMENT: Stacker crane application (Norbert Ascheuer)
DIMENSION: 21
EDGE_WEIGHT_TYPE: EXPLICIT
EDGE_WEIGHT_FORMAT: FULL_MATRIX 
EDGE_WEIGHT_SECTION
  21
   0   0   0   0   0   0   0   0   0   0   0   0   0   0   0   0   0   0   0   0 1000000
  -1   0  11  10  23   0  15  15  16  18  24  20  10  15  14  16  11  24  24  20   0
  -1   0   0  11  23  10  14  21  15  19  24  19  11  21  15  18  12  23  23  19   0
  -1  11  12   0  23  10  16  18  18  20  24  21   2  18  12  15  10  24  24  21   0
  -1  -1  -1  23   0  23  26  23  27  27  31  28  23  23  18  15  23  31  31  28   0
  -1  -1  -1  10  23   0  15  18  16  18  24  20  10  18  14  16  11  24  24  20   0
  -1  -1  -1  15  16  14   0  21  11  19  21  19  15  21  21  23  16  20  20  19   0
  -1  -1  -1  15  16  14  10   0  11  19  21  19  15  21  21  23  16  20  20  19   0
  -1  -1  -1  25  12  24  21  24   0  18  10  18  25  24  27  28  25  18  11  18   0
  -1  -1  -1  18  14  16  10  21   0   0  18  19  18  21  23  24  20  19  16  19   0
  -1  -1  -1  -1  -1  -1  15  23  14  12   0  12  23  23  25  26  24  11  11  12   0
  -1  -1  -1  -1  -1  -1  20  24  18  19   0   0  24  24  27  28  25  19  10  19   0
  -1  -1  -1  -1  -1  -1  16  18  18  20  24  21   0  18  12  15  10  24  24  21   0
  -1  -1  -1  -1  -1  -1  10  21  11  19  21  19  15   0  21  23  16  20  20  19   0
  -1  -1  -1  -1  -1  -1  -1  -1  -1  -1  27  24  14  15   0  10  12  27  27  24   0
  -1  -1  -1  -1  -1  -1  -1  -1  -1  -1  27  24  12  21   0   0  12  26  26  24   0
  -1  -1  -1  -1  -1  -1  -1  -1  -1  -1  -1  -1  -1  24  27  28   0  18  11  18   0
  -1  -1  -1  -1  -1  -1  -1  -1  -1  -1  -1  -1  -1  21  12  15   0   0  24  23   0
  -1  -1  -1  -1  -1  -1  -1  -1  -1  -1  -1  -1  -1  -1  27  28  25  18   0  18   0
  -1  -1  -1  -1  -1  -1  -1  -1  -1  -1  -1  -1  -1  -1  26  27  24  19   0   0   0
  -1  -1  -1  -1  -1  -1  -1  -1  -1  -1  -1  -1  -1  -1  -1  -1  -1  -1  -1  -1   0
